120
150
89
52
56
20
78
72
55
95
42
22
86
74
59
58
48
24
68
26
56
71
74
63
36
78
56
74
31
45
34
48
81
21
48
48
78
24
29
23
74
55
95
42
54
54
80
58
68
89
23
63
87
74
50
26
59
91
28
42
80
73
29
48
50
22
91
59
23
56
39
53
61
36
54
95
43
79
50
100
36
78
50
100
85
41
24
80
44
26
59
31
60
39
48
63
85
28
38
84
28
29
46
75
59
86
54
100
56
94
100
100
50
78
74
100
89
63
87
100
100
50
